# Solution for model JobShopModel
# Objective value = 143
y[0,0,3] 0
y[0,0,6] 0
y[0,0,7] 1
y[0,1,0] 1
y[0,1,2] 0
y[0,1,4] 0
y[0,2,2] 1
y[0,2,3] 0
y[0,2,7] 0
y[0,3,2] 0
y[0,3,4] 0
y[0,3,7] 1
y[1,0,1] 0
y[1,0,3] 1
y[1,0,4] 0
y[1,1,0] 1
y[1,1,1] 0
y[1,1,4] 0
y[1,2,4] 0
y[1,2,5] 1
y[1,2,7] 0
y[1,3,0] 0
y[1,3,2] 1
y[1,3,7] 0
y[2,0,1] 0
y[2,0,5] 0
y[2,0,6] 1
y[2,1,3] 0
y[2,1,4] 0
y[2,1,5] 1
y[2,2,1] 1
y[2,2,2] 0
y[2,2,3] 0
y[2,3,4] 1
y[2,3,5] 0
y[2,3,7] 0
y[3,0,3] 0
y[3,0,4] 0
y[3,0,7] 1
y[3,1,4] 0
y[3,1,6] 1
y[3,1,7] 0
y[3,2,0] 0
y[3,2,4] 0
y[3,2,7] 1
y[3,3,0] 0
y[3,3,5] 0
y[3,3,7] 1
y[4,0,5] 0
y[4,0,6] 1
y[4,0,7] 0
y[4,1,0] 0
y[4,1,3] 1
y[4,1,4] 0
y[4,2,1] 1
y[4,2,5] 0
y[4,2,7] 0
y[4,3,0] 1
y[4,3,5] 0
y[4,3,7] 0
y[5,0,1] 1
y[5,0,3] 0
y[5,0,4] 0
y[5,1,1] 0
y[5,1,3] 1
y[5,1,6] 0
y[5,2,0] 0
y[5,2,6] 0
y[5,2,7] 1
y[5,3,3] 1
y[5,3,4] 0
y[5,3,5] 0
y[6,0,1] 0
y[6,0,2] 1
y[6,0,4] 0
y[6,1,0] 0
y[6,1,4] 0
y[6,1,5] 1
y[6,2,4] 1
y[6,2,5] 0
y[6,2,6] 0
y[6,3,3] 0
y[6,3,4] 0
y[6,3,6] 1
y[7,0,0] 0
y[7,0,3] 0
y[7,0,4] 1
y[7,1,2] 1
y[7,1,4] 0
y[7,1,6] 0
y[7,2,1] 0
y[7,2,2] 0
y[7,2,3] 1
y[7,3,1] 0
y[7,3,3] 0
y[7,3,6] 1
y[8,0,0] 0
y[8,0,4] 0
y[8,0,5] 1
y[8,1,0] 0
y[8,1,3] 0
y[8,1,4] 1
y[8,2,1] 1
y[8,2,5] 0
y[8,2,7] 0
y[8,3,0] 1
y[8,3,2] 0
y[8,3,6] 0
x[0,0,0,0] 0
x[0,0,0,1] 0
x[0,0,0,2] 0
x[0,0,0,3] 1
x[0,0,1,0] 0
x[0,0,1,1] 0
x[0,0,1,2] 0
x[0,0,1,3] 0
x[0,0,2,0] 0
x[0,0,2,1] 0
x[0,0,2,2] 0
x[0,0,2,3] 0
x[0,0,3,0] 0
x[0,0,3,1] 1
x[0,0,3,2] 0
x[0,0,3,3] 0
x[0,0,4,0] 0
x[0,0,4,1] 1
x[0,0,4,2] 0
x[0,0,4,3] 0
x[0,0,5,0] 0
x[0,0,5,1] 0
x[0,0,5,2] 0
x[0,0,5,3] 0
x[0,0,6,0] 0
x[0,0,6,1] 0
x[0,0,6,2] 0
x[0,0,6,3] 0
x[0,0,7,0] 0
x[0,0,7,1] 1
x[0,0,7,2] 0
x[0,0,7,3] 0
x[0,0,8,0] 0
x[0,0,8,1] 1
x[0,0,8,2] 0
x[0,0,8,3] 0
x[0,1,0,0] 0
x[0,1,0,1] 0
x[0,1,0,2] 0
x[0,1,0,3] 0
x[0,1,1,0] 0
x[0,1,1,1] 0
x[0,1,1,2] 0
x[0,1,1,3] 0
x[0,1,2,0] 0
x[0,1,2,1] 0
x[0,1,2,2] 0
x[0,1,2,3] 0
x[0,1,3,0] 0
x[0,1,3,1] 0
x[0,1,3,2] 0
x[0,1,3,3] 0
x[0,1,4,0] 0
x[0,1,4,1] 1
x[0,1,4,2] 0
x[0,1,4,3] 0
x[0,1,5,0] 0
x[0,1,5,1] 0
x[0,1,5,2] 0
x[0,1,5,3] 0
x[0,1,6,0] 1
x[0,1,6,1] 0
x[0,1,6,2] 0
x[0,1,6,3] 0
x[0,1,7,0] 0
x[0,1,7,1] 0
x[0,1,7,2] 0
x[0,1,7,3] 0
x[0,1,8,0] 0
x[0,1,8,1] 0
x[0,1,8,2] 0
x[0,1,8,3] 0
x[0,2,0,0] 1
x[0,2,0,1] 1
x[0,2,0,2] 0
x[0,2,0,3] 0
x[0,2,1,0] 0
x[0,2,1,1] 0
x[0,2,1,2] 0
x[0,2,1,3] 0
x[0,2,2,0] 0
x[0,2,2,1] 0
x[0,2,2,2] 0
x[0,2,2,3] 0
x[0,2,3,0] 0
x[0,2,3,1] 0
x[0,2,3,2] 1
x[0,2,3,3] 1
x[0,2,4,0] 0
x[0,2,4,1] 0
x[0,2,4,2] 1
x[0,2,4,3] 0
x[0,2,5,0] 0
x[0,2,5,1] 0
x[0,2,5,2] 0
x[0,2,5,3] 0
x[0,2,6,0] 0
x[0,2,6,1] 0
x[0,2,6,2] 0
x[0,2,6,3] 0
x[0,2,7,0] 0
x[0,2,7,1] 0
x[0,2,7,2] 0
x[0,2,7,3] 0
x[0,2,8,0] 0
x[0,2,8,1] 0
x[0,2,8,2] 0
x[0,2,8,3] 0
x[0,3,0,0] 0
x[0,3,0,1] 1
x[0,3,0,2] 1
x[0,3,0,3] 0
x[0,3,1,0] 0
x[0,3,1,1] 0
x[0,3,1,2] 0
x[0,3,1,3] 1
x[0,3,2,0] 0
x[0,3,2,1] 0
x[0,3,2,2] 0
x[0,3,2,3] 0
x[0,3,3,0] 0
x[0,3,3,1] 0
x[0,3,3,2] 0
x[0,3,3,3] 0
x[0,3,4,0] 0
x[0,3,4,1] 0
x[0,3,4,2] 0
x[0,3,4,3] 0
x[0,3,5,0] 0
x[0,3,5,1] 0
x[0,3,5,2] 0
x[0,3,5,3] 0
x[0,3,6,0] 0
x[0,3,6,1] 0
x[0,3,6,2] 0
x[0,3,6,3] 0
x[0,3,7,0] 0
x[0,3,7,1] 0
x[0,3,7,2] 0
x[0,3,7,3] 0
x[0,3,8,0] 0
x[0,3,8,1] 0
x[0,3,8,2] 0
x[0,3,8,3] 0
x[1,0,0,0] 0
x[1,0,0,1] 0
x[1,0,0,2] 0
x[1,0,0,3] 0
x[1,0,1,0] 0
x[1,0,1,1] 1
x[1,0,1,2] 1
x[1,0,1,3] 0
x[1,0,2,0] 0
x[1,0,2,1] 1
x[1,0,2,2] 0
x[1,0,2,3] 1
x[1,0,3,0] 0
x[1,0,3,1] 0
x[1,0,3,2] 0
x[1,0,3,3] 0
x[1,0,4,0] 0
x[1,0,4,1] 1
x[1,0,4,2] 0
x[1,0,4,3] 0
x[1,0,5,0] 0
x[1,0,5,1] 1
x[1,0,5,2] 0
x[1,0,5,3] 0
x[1,0,6,0] 0
x[1,0,6,1] 0
x[1,0,6,2] 1
x[1,0,6,3] 1
x[1,0,7,0] 0
x[1,0,7,1] 1
x[1,0,7,2] 1
x[1,0,7,3] 0
x[1,0,8,0] 1
x[1,0,8,1] 1
x[1,0,8,2] 0
x[1,0,8,3] 0
x[1,1,0,0] 0
x[1,1,0,1] 0
x[1,1,0,2] 0
x[1,1,0,3] 0
x[1,1,1,0] 0
x[1,1,1,1] 0
x[1,1,1,2] 1
x[1,1,1,3] 0
x[1,1,2,0] 0
x[1,1,2,1] 0
x[1,1,2,2] 0
x[1,1,2,3] 0
x[1,1,3,0] 0
x[1,1,3,1] 0
x[1,1,3,2] 0
x[1,1,3,3] 0
x[1,1,4,0] 0
x[1,1,4,1] 0
x[1,1,4,2] 1
x[1,1,4,3] 0
x[1,1,5,0] 1
x[1,1,5,1] 0
x[1,1,5,2] 0
x[1,1,5,3] 0
x[1,1,6,0] 0
x[1,1,6,1] 0
x[1,1,6,2] 1
x[1,1,6,3] 1
x[1,1,7,0] 0
x[1,1,7,1] 0
x[1,1,7,2] 1
x[1,1,7,3] 1
x[1,1,8,0] 0
x[1,1,8,1] 0
x[1,1,8,2] 1
x[1,1,8,3] 0
x[1,2,0,0] 0
x[1,2,0,1] 0
x[1,2,0,2] 0
x[1,2,0,3] 0
x[1,2,1,0] 0
x[1,2,1,1] 0
x[1,2,1,2] 0
x[1,2,1,3] 0
x[1,2,2,0] 0
x[1,2,2,1] 1
x[1,2,2,2] 0
x[1,2,2,3] 1
x[1,2,3,0] 0
x[1,2,3,1] 0
x[1,2,3,2] 0
x[1,2,3,3] 0
x[1,2,4,0] 1
x[1,2,4,1] 1
x[1,2,4,2] 0
x[1,2,4,3] 0
x[1,2,5,0] 0
x[1,2,5,1] 0
x[1,2,5,2] 0
x[1,2,5,3] 0
x[1,2,6,0] 1
x[1,2,6,1] 1
x[1,2,6,2] 0
x[1,2,6,3] 1
x[1,2,7,0] 0
x[1,2,7,1] 0
x[1,2,7,2] 0
x[1,2,7,3] 0
x[1,2,8,0] 0
x[1,2,8,1] 1
x[1,2,8,2] 0
x[1,2,8,3] 0
x[1,3,0,0] 0
x[1,3,0,1] 0
x[1,3,0,2] 0
x[1,3,0,3] 0
x[1,3,1,0] 0
x[1,3,1,1] 1
x[1,3,1,2] 1
x[1,3,1,3] 0
x[1,3,2,0] 0
x[1,3,2,1] 0
x[1,3,2,2] 0
x[1,3,2,3] 0
x[1,3,3,0] 0
x[1,3,3,1] 1
x[1,3,3,2] 1
x[1,3,3,3] 1
x[1,3,4,0] 0
x[1,3,4,1] 0
x[1,3,4,2] 0
x[1,3,4,3] 0
x[1,3,5,0] 0
x[1,3,5,1] 0
x[1,3,5,2] 0
x[1,3,5,3] 0
x[1,3,6,0] 0
x[1,3,6,1] 0
x[1,3,6,2] 0
x[1,3,6,3] 0
x[1,3,7,0] 0
x[1,3,7,1] 0
x[1,3,7,2] 0
x[1,3,7,3] 0
x[1,3,8,0] 0
x[1,3,8,1] 0
x[1,3,8,2] 0
x[1,3,8,3] 0
x[2,0,0,0] 0
x[2,0,0,1] 0
x[2,0,0,2] 0
x[2,0,0,3] 0
x[2,0,1,0] 0
x[2,0,1,1] 0
x[2,0,1,2] 0
x[2,0,1,3] 0
x[2,0,2,0] 0
x[2,0,2,1] 1
x[2,0,2,2] 0
x[2,0,2,3] 0
x[2,0,3,0] 0
x[2,0,3,1] 0
x[2,0,3,2] 0
x[2,0,3,3] 0
x[2,0,4,0] 0
x[2,0,4,1] 0
x[2,0,4,2] 0
x[2,0,4,3] 0
x[2,0,5,0] 0
x[2,0,5,1] 0
x[2,0,5,2] 0
x[2,0,5,3] 0
x[2,0,6,0] 0
x[2,0,6,1] 0
x[2,0,6,2] 0
x[2,0,6,3] 1
x[2,0,7,0] 0
x[2,0,7,1] 1
x[2,0,7,2] 0
x[2,0,7,3] 0
x[2,0,8,0] 0
x[2,0,8,1] 0
x[2,0,8,2] 0
x[2,0,8,3] 0
x[2,1,0,0] 0
x[2,1,0,1] 0
x[2,1,0,2] 0
x[2,1,0,3] 0
x[2,1,1,0] 0
x[2,1,1,1] 0
x[2,1,1,2] 0
x[2,1,1,3] 0
x[2,1,2,0] 0
x[2,1,2,1] 0
x[2,1,2,2] 0
x[2,1,2,3] 0
x[2,1,3,0] 0
x[2,1,3,1] 0
x[2,1,3,2] 0
x[2,1,3,3] 0
x[2,1,4,0] 0
x[2,1,4,1] 0
x[2,1,4,2] 0
x[2,1,4,3] 0
x[2,1,5,0] 0
x[2,1,5,1] 0
x[2,1,5,2] 0
x[2,1,5,3] 0
x[2,1,6,0] 0
x[2,1,6,1] 0
x[2,1,6,2] 0
x[2,1,6,3] 0
x[2,1,7,0] 0
x[2,1,7,1] 0
x[2,1,7,2] 1
x[2,1,7,3] 0
x[2,1,8,0] 0
x[2,1,8,1] 0
x[2,1,8,2] 0
x[2,1,8,3] 0
x[2,2,0,0] 0
x[2,2,0,1] 0
x[2,2,0,2] 0
x[2,2,0,3] 0
x[2,2,1,0] 0
x[2,2,1,1] 0
x[2,2,1,2] 0
x[2,2,1,3] 0
x[2,2,2,0] 1
x[2,2,2,1] 1
x[2,2,2,2] 0
x[2,2,2,3] 0
x[2,2,3,0] 1
x[2,2,3,1] 0
x[2,2,3,2] 0
x[2,2,3,3] 0
x[2,2,4,0] 0
x[2,2,4,1] 1
x[2,2,4,2] 0
x[2,2,4,3] 0
x[2,2,5,0] 0
x[2,2,5,1] 0
x[2,2,5,2] 0
x[2,2,5,3] 1
x[2,2,6,0] 0
x[2,2,6,1] 0
x[2,2,6,2] 0
x[2,2,6,3] 0
x[2,2,7,0] 1
x[2,2,7,1] 0
x[2,2,7,2] 0
x[2,2,7,3] 0
x[2,2,8,0] 0
x[2,2,8,1] 1
x[2,2,8,2] 0
x[2,2,8,3] 0
x[2,3,0,0] 0
x[2,3,0,1] 0
x[2,3,0,2] 0
x[2,3,0,3] 0
x[2,3,1,0] 0
x[2,3,1,1] 0
x[2,3,1,2] 0
x[2,3,1,3] 0
x[2,3,2,0] 1
x[2,3,2,1] 1
x[2,3,2,2] 0
x[2,3,2,3] 0
x[2,3,3,0] 0
x[2,3,3,1] 0
x[2,3,3,2] 1
x[2,3,3,3] 1
x[2,3,4,0] 0
x[2,3,4,1] 0
x[2,3,4,2] 0
x[2,3,4,3] 0
x[2,3,5,0] 0
x[2,3,5,1] 0
x[2,3,5,2] 0
x[2,3,5,3] 0
x[2,3,6,0] 0
x[2,3,6,1] 0
x[2,3,6,2] 0
x[2,3,6,3] 0
x[2,3,7,0] 0
x[2,3,7,1] 0
x[2,3,7,2] 0
x[2,3,7,3] 0
x[2,3,8,0] 0
x[2,3,8,1] 0
x[2,3,8,2] 0
x[2,3,8,3] 0
x[3,0,0,0] 0
x[3,0,0,1] 0
x[3,0,0,2] 0
x[3,0,0,3] 0
x[3,0,1,0] 0
x[3,0,1,1] 0
x[3,0,1,2] 0
x[3,0,1,3] 0
x[3,0,2,0] 0
x[3,0,2,1] 0
x[3,0,2,2] 0
x[3,0,2,3] 0
x[3,0,3,0] 0
x[3,0,3,1] 0
x[3,0,3,2] 1
x[3,0,3,3] 1
x[3,0,4,0] 0
x[3,0,4,1] 1
x[3,0,4,2] 0
x[3,0,4,3] 0
x[3,0,5,0] 0
x[3,0,5,1] 1
x[3,0,5,2] 0
x[3,0,5,3] 0
x[3,0,6,0] 0
x[3,0,6,1] 0
x[3,0,6,2] 0
x[3,0,6,3] 0
x[3,0,7,0] 0
x[3,0,7,1] 0
x[3,0,7,2] 1
x[3,0,7,3] 0
x[3,0,8,0] 0
x[3,0,8,1] 0
x[3,0,8,2] 0
x[3,0,8,3] 0
x[3,1,0,0] 0
x[3,1,0,1] 0
x[3,1,0,2] 0
x[3,1,0,3] 0
x[3,1,1,0] 0
x[3,1,1,1] 0
x[3,1,1,2] 0
x[3,1,1,3] 0
x[3,1,2,0] 0
x[3,1,2,1] 0
x[3,1,2,2] 0
x[3,1,2,3] 0
x[3,1,3,0] 1
x[3,1,3,1] 0
x[3,1,3,2] 0
x[3,1,3,3] 1
x[3,1,4,0] 1
x[3,1,4,1] 0
x[3,1,4,2] 0
x[3,1,4,3] 0
x[3,1,5,0] 0
x[3,1,5,1] 0
x[3,1,5,2] 0
x[3,1,5,3] 0
x[3,1,6,0] 0
x[3,1,6,1] 0
x[3,1,6,2] 0
x[3,1,6,3] 1
x[3,1,7,0] 0
x[3,1,7,1] 1
x[3,1,7,2] 0
x[3,1,7,3] 0
x[3,1,8,0] 0
x[3,1,8,1] 0
x[3,1,8,2] 0
x[3,1,8,3] 0
x[3,2,0,0] 0
x[3,2,0,1] 0
x[3,2,0,2] 0
x[3,2,0,3] 0
x[3,2,1,0] 0
x[3,2,1,1] 0
x[3,2,1,2] 0
x[3,2,1,3] 0
x[3,2,2,0] 0
x[3,2,2,1] 0
x[3,2,2,2] 0
x[3,2,2,3] 0
x[3,2,3,0] 0
x[3,2,3,1] 1
x[3,2,3,2] 0
x[3,2,3,3] 1
x[3,2,4,0] 0
x[3,2,4,1] 1
x[3,2,4,2] 0
x[3,2,4,3] 0
x[3,2,5,0] 0
x[3,2,5,1] 0
x[3,2,5,2] 0
x[3,2,5,3] 0
x[3,2,6,0] 1
x[3,2,6,1] 0
x[3,2,6,2] 0
x[3,2,6,3] 0
x[3,2,7,0] 0
x[3,2,7,1] 0
x[3,2,7,2] 0
x[3,2,7,3] 0
x[3,2,8,0] 0
x[3,2,8,1] 0
x[3,2,8,2] 0
x[3,2,8,3] 0
x[3,3,0,0] 0
x[3,3,0,1] 0
x[3,3,0,2] 0
x[3,3,0,3] 0
x[3,3,1,0] 0
x[3,3,1,1] 0
x[3,3,1,2] 0
x[3,3,1,3] 0
x[3,3,2,0] 0
x[3,3,2,1] 0
x[3,3,2,2] 0
x[3,3,2,3] 0
x[3,3,3,0] 0
x[3,3,3,1] 0
x[3,3,3,2] 0
x[3,3,3,3] 0
x[3,3,4,0] 0
x[3,3,4,1] 0
x[3,3,4,2] 1
x[3,3,4,3] 0
x[3,3,5,0] 0
x[3,3,5,1] 0
x[3,3,5,2] 0
x[3,3,5,3] 0
x[3,3,6,0] 0
x[3,3,6,1] 0
x[3,3,6,2] 0
x[3,3,6,3] 0
x[3,3,7,0] 0
x[3,3,7,1] 0
x[3,3,7,2] 0
x[3,3,7,3] 0
x[3,3,8,0] 0
x[3,3,8,1] 0
x[3,3,8,2] 0
x[3,3,8,3] 0
x[4,0,0,0] 0
x[4,0,0,1] 0
x[4,0,0,2] 0
x[4,0,0,3] 0
x[4,0,1,0] 0
x[4,0,1,1] 0
x[4,0,1,2] 0
x[4,0,1,3] 0
x[4,0,2,0] 0
x[4,0,2,1] 0
x[4,0,2,2] 0
x[4,0,2,3] 0
x[4,0,3,0] 0
x[4,0,3,1] 0
x[4,0,3,2] 0
x[4,0,3,3] 0
x[4,0,4,0] 0
x[4,0,4,1] 0
x[4,0,4,2] 0
x[4,0,4,3] 0
x[4,0,5,0] 0
x[4,0,5,1] 0
x[4,0,5,2] 1
x[4,0,5,3] 0
x[4,0,6,0] 0
x[4,0,6,1] 0
x[4,0,6,2] 0
x[4,0,6,3] 1
x[4,0,7,0] 0
x[4,0,7,1] 1
x[4,0,7,2] 0
x[4,0,7,3] 0
x[4,0,8,0] 0
x[4,0,8,1] 0
x[4,0,8,2] 0
x[4,0,8,3] 0
x[4,1,0,0] 0
x[4,1,0,1] 0
x[4,1,0,2] 0
x[4,1,0,3] 0
x[4,1,1,0] 0
x[4,1,1,1] 0
x[4,1,1,2] 0
x[4,1,1,3] 0
x[4,1,2,0] 0
x[4,1,2,1] 0
x[4,1,2,2] 0
x[4,1,2,3] 0
x[4,1,3,0] 0
x[4,1,3,1] 0
x[4,1,3,2] 0
x[4,1,3,3] 0
x[4,1,4,0] 0
x[4,1,4,1] 0
x[4,1,4,2] 0
x[4,1,4,3] 1
x[4,1,5,0] 0
x[4,1,5,1] 0
x[4,1,5,2] 0
x[4,1,5,3] 0
x[4,1,6,0] 0
x[4,1,6,1] 0
x[4,1,6,2] 0
x[4,1,6,3] 0
x[4,1,7,0] 0
x[4,1,7,1] 0
x[4,1,7,2] 1
x[4,1,7,3] 0
x[4,1,8,0] 0
x[4,1,8,1] 1
x[4,1,8,2] 0
x[4,1,8,3] 0
x[4,2,0,0] 0
x[4,2,0,1] 0
x[4,2,0,2] 0
x[4,2,0,3] 0
x[4,2,1,0] 0
x[4,2,1,1] 0
x[4,2,1,2] 0
x[4,2,1,3] 0
x[4,2,2,0] 0
x[4,2,2,1] 0
x[4,2,2,2] 0
x[4,2,2,3] 0
x[4,2,3,0] 0
x[4,2,3,1] 0
x[4,2,3,2] 0
x[4,2,3,3] 0
x[4,2,4,0] 1
x[4,2,4,1] 0
x[4,2,4,2] 0
x[4,2,4,3] 0
x[4,2,5,0] 0
x[4,2,5,1] 0
x[4,2,5,2] 0
x[4,2,5,3] 0
x[4,2,6,0] 0
x[4,2,6,1] 0
x[4,2,6,2] 0
x[4,2,6,3] 0
x[4,2,7,0] 0
x[4,2,7,1] 0
x[4,2,7,2] 0
x[4,2,7,3] 0
x[4,2,8,0] 0
x[4,2,8,1] 0
x[4,2,8,2] 0
x[4,2,8,3] 0
x[4,3,0,0] 0
x[4,3,0,1] 0
x[4,3,0,2] 0
x[4,3,0,3] 0
x[4,3,1,0] 0
x[4,3,1,1] 0
x[4,3,1,2] 0
x[4,3,1,3] 0
x[4,3,2,0] 0
x[4,3,2,1] 0
x[4,3,2,2] 0
x[4,3,2,3] 0
x[4,3,3,0] 0
x[4,3,3,1] 0
x[4,3,3,2] 0
x[4,3,3,3] 0
x[4,3,4,0] 1
x[4,3,4,1] 0
x[4,3,4,2] 1
x[4,3,4,3] 0
x[4,3,5,0] 0
x[4,3,5,1] 0
x[4,3,5,2] 0
x[4,3,5,3] 0
x[4,3,6,0] 0
x[4,3,6,1] 0
x[4,3,6,2] 0
x[4,3,6,3] 0
x[4,3,7,0] 0
x[4,3,7,1] 0
x[4,3,7,2] 0
x[4,3,7,3] 0
x[4,3,8,0] 0
x[4,3,8,1] 0
x[4,3,8,2] 0
x[4,3,8,3] 0
x[5,0,0,0] 0
x[5,0,0,1] 0
x[5,0,0,2] 0
x[5,0,0,3] 0
x[5,0,1,0] 0
x[5,0,1,1] 0
x[5,0,1,2] 0
x[5,0,1,3] 0
x[5,0,2,0] 0
x[5,0,2,1] 0
x[5,0,2,2] 0
x[5,0,2,3] 0
x[5,0,3,0] 0
x[5,0,3,1] 0
x[5,0,3,2] 0
x[5,0,3,3] 0
x[5,0,4,0] 0
x[5,0,4,1] 0
x[5,0,4,2] 0
x[5,0,4,3] 0
x[5,0,5,0] 0
x[5,0,5,1] 1
x[5,0,5,2] 0
x[5,0,5,3] 1
x[5,0,6,0] 0
x[5,0,6,1] 0
x[5,0,6,2] 0
x[5,0,6,3] 0
x[5,0,7,0] 0
x[5,0,7,1] 0
x[5,0,7,2] 0
x[5,0,7,3] 1
x[5,0,8,0] 0
x[5,0,8,1] 1
x[5,0,8,2] 1
x[5,0,8,3] 0
x[5,1,0,0] 0
x[5,1,0,1] 0
x[5,1,0,2] 0
x[5,1,0,3] 0
x[5,1,1,0] 0
x[5,1,1,1] 0
x[5,1,1,2] 0
x[5,1,1,3] 0
x[5,1,2,0] 0
x[5,1,2,1] 0
x[5,1,2,2] 0
x[5,1,2,3] 0
x[5,1,3,0] 0
x[5,1,3,1] 0
x[5,1,3,2] 0
x[5,1,3,3] 0
x[5,1,4,0] 0
x[5,1,4,1] 0
x[5,1,4,2] 0
x[5,1,4,3] 0
x[5,1,5,0] 0
x[5,1,5,1] 0
x[5,1,5,2] 0
x[5,1,5,3] 0
x[5,1,6,0] 0
x[5,1,6,1] 0
x[5,1,6,2] 0
x[5,1,6,3] 0
x[5,1,7,0] 0
x[5,1,7,1] 0
x[5,1,7,2] 1
x[5,1,7,3] 0
x[5,1,8,0] 0
x[5,1,8,1] 0
x[5,1,8,2] 0
x[5,1,8,3] 0
x[5,2,0,0] 0
x[5,2,0,1] 0
x[5,2,0,2] 0
x[5,2,0,3] 0
x[5,2,1,0] 0
x[5,2,1,1] 0
x[5,2,1,2] 0
x[5,2,1,3] 0
x[5,2,2,0] 0
x[5,2,2,1] 0
x[5,2,2,2] 0
x[5,2,2,3] 0
x[5,2,3,0] 0
x[5,2,3,1] 0
x[5,2,3,2] 0
x[5,2,3,3] 0
x[5,2,4,0] 0
x[5,2,4,1] 0
x[5,2,4,2] 0
x[5,2,4,3] 0
x[5,2,5,0] 0
x[5,2,5,1] 1
x[5,2,5,2] 0
x[5,2,5,3] 0
x[5,2,6,0] 0
x[5,2,6,1] 0
x[5,2,6,2] 0
x[5,2,6,3] 1
x[5,2,7,0] 0
x[5,2,7,1] 0
x[5,2,7,2] 0
x[5,2,7,3] 0
x[5,2,8,0] 0
x[5,2,8,1] 0
x[5,2,8,2] 0
x[5,2,8,3] 0
x[5,3,0,0] 0
x[5,3,0,1] 0
x[5,3,0,2] 0
x[5,3,0,3] 0
x[5,3,1,0] 0
x[5,3,1,1] 0
x[5,3,1,2] 0
x[5,3,1,3] 0
x[5,3,2,0] 0
x[5,3,2,1] 0
x[5,3,2,2] 0
x[5,3,2,3] 0
x[5,3,3,0] 0
x[5,3,3,1] 0
x[5,3,3,2] 0
x[5,3,3,3] 0
x[5,3,4,0] 0
x[5,3,4,1] 0
x[5,3,4,2] 0
x[5,3,4,3] 0
x[5,3,5,0] 0
x[5,3,5,1] 1
x[5,3,5,2] 0
x[5,3,5,3] 0
x[5,3,6,0] 1
x[5,3,6,1] 0
x[5,3,6,2] 0
x[5,3,6,3] 1
x[5,3,7,0] 0
x[5,3,7,1] 0
x[5,3,7,2] 1
x[5,3,7,3] 0
x[5,3,8,0] 0
x[5,3,8,1] 1
x[5,3,8,2] 0
x[5,3,8,3] 0
x[6,0,0,0] 0
x[6,0,0,1] 0
x[6,0,0,2] 0
x[6,0,0,3] 0
x[6,0,1,0] 0
x[6,0,1,1] 0
x[6,0,1,2] 0
x[6,0,1,3] 0
x[6,0,2,0] 0
x[6,0,2,1] 0
x[6,0,2,2] 0
x[6,0,2,3] 0
x[6,0,3,0] 0
x[6,0,3,1] 0
x[6,0,3,2] 0
x[6,0,3,3] 0
x[6,0,4,0] 0
x[6,0,4,1] 0
x[6,0,4,2] 0
x[6,0,4,3] 0
x[6,0,5,0] 0
x[6,0,5,1] 0
x[6,0,5,2] 0
x[6,0,5,3] 0
x[6,0,6,0] 0
x[6,0,6,1] 0
x[6,0,6,2] 0
x[6,0,6,3] 0
x[6,0,7,0] 0
x[6,0,7,1] 0
x[6,0,7,2] 0
x[6,0,7,3] 0
x[6,0,8,0] 0
x[6,0,8,1] 0
x[6,0,8,2] 0
x[6,0,8,3] 0
x[6,1,0,0] 0
x[6,1,0,1] 0
x[6,1,0,2] 0
x[6,1,0,3] 0
x[6,1,1,0] 0
x[6,1,1,1] 0
x[6,1,1,2] 0
x[6,1,1,3] 0
x[6,1,2,0] 0
x[6,1,2,1] 0
x[6,1,2,2] 0
x[6,1,2,3] 0
x[6,1,3,0] 0
x[6,1,3,1] 0
x[6,1,3,2] 0
x[6,1,3,3] 0
x[6,1,4,0] 0
x[6,1,4,1] 0
x[6,1,4,2] 0
x[6,1,4,3] 0
x[6,1,5,0] 0
x[6,1,5,1] 0
x[6,1,5,2] 0
x[6,1,5,3] 0
x[6,1,6,0] 1
x[6,1,6,1] 0
x[6,1,6,2] 0
x[6,1,6,3] 0
x[6,1,7,0] 0
x[6,1,7,1] 1
x[6,1,7,2] 0
x[6,1,7,3] 0
x[6,1,8,0] 0
x[6,1,8,1] 0
x[6,1,8,2] 0
x[6,1,8,3] 0
x[6,2,0,0] 0
x[6,2,0,1] 0
x[6,2,0,2] 0
x[6,2,0,3] 0
x[6,2,1,0] 0
x[6,2,1,1] 0
x[6,2,1,2] 0
x[6,2,1,3] 0
x[6,2,2,0] 0
x[6,2,2,1] 0
x[6,2,2,2] 0
x[6,2,2,3] 0
x[6,2,3,0] 0
x[6,2,3,1] 0
x[6,2,3,2] 0
x[6,2,3,3] 0
x[6,2,4,0] 0
x[6,2,4,1] 0
x[6,2,4,2] 0
x[6,2,4,3] 0
x[6,2,5,0] 0
x[6,2,5,1] 0
x[6,2,5,2] 0
x[6,2,5,3] 0
x[6,2,6,0] 1
x[6,2,6,1] 1
x[6,2,6,2] 0
x[6,2,6,3] 1
x[6,2,7,0] 0
x[6,2,7,1] 0
x[6,2,7,2] 0
x[6,2,7,3] 0
x[6,2,8,0] 0
x[6,2,8,1] 0
x[6,2,8,2] 0
x[6,2,8,3] 0
x[6,3,0,0] 0
x[6,3,0,1] 0
x[6,3,0,2] 0
x[6,3,0,3] 0
x[6,3,1,0] 0
x[6,3,1,1] 0
x[6,3,1,2] 0
x[6,3,1,3] 0
x[6,3,2,0] 0
x[6,3,2,1] 0
x[6,3,2,2] 0
x[6,3,2,3] 0
x[6,3,3,0] 0
x[6,3,3,1] 0
x[6,3,3,2] 0
x[6,3,3,3] 0
x[6,3,4,0] 0
x[6,3,4,1] 0
x[6,3,4,2] 0
x[6,3,4,3] 0
x[6,3,5,0] 0
x[6,3,5,1] 0
x[6,3,5,2] 0
x[6,3,5,3] 0
x[6,3,6,0] 1
x[6,3,6,1] 1
x[6,3,6,2] 0
x[6,3,6,3] 0
x[6,3,7,0] 1
x[6,3,7,1] 1
x[6,3,7,2] 1
x[6,3,7,3] 0
x[6,3,8,0] 0
x[6,3,8,1] 0
x[6,3,8,2] 0
x[6,3,8,3] 0
x[7,0,0,0] 0
x[7,0,0,1] 0
x[7,0,0,2] 0
x[7,0,0,3] 0
x[7,0,1,0] 0
x[7,0,1,1] 0
x[7,0,1,2] 0
x[7,0,1,3] 0
x[7,0,2,0] 0
x[7,0,2,1] 0
x[7,0,2,2] 0
x[7,0,2,3] 0
x[7,0,3,0] 0
x[7,0,3,1] 0
x[7,0,3,2] 0
x[7,0,3,3] 0
x[7,0,4,0] 0
x[7,0,4,1] 0
x[7,0,4,2] 0
x[7,0,4,3] 0
x[7,0,5,0] 0
x[7,0,5,1] 0
x[7,0,5,2] 0
x[7,0,5,3] 0
x[7,0,6,0] 0
x[7,0,6,1] 0
x[7,0,6,2] 0
x[7,0,6,3] 0
x[7,0,7,0] 0
x[7,0,7,1] 1
x[7,0,7,2] 0
x[7,0,7,3] 0
x[7,0,8,0] 0
x[7,0,8,1] 1
x[7,0,8,2] 0
x[7,0,8,3] 0
x[7,1,0,0] 0
x[7,1,0,1] 0
x[7,1,0,2] 0
x[7,1,0,3] 0
x[7,1,1,0] 0
x[7,1,1,1] 0
x[7,1,1,2] 0
x[7,1,1,3] 0
x[7,1,2,0] 0
x[7,1,2,1] 0
x[7,1,2,2] 0
x[7,1,2,3] 0
x[7,1,3,0] 0
x[7,1,3,1] 0
x[7,1,3,2] 0
x[7,1,3,3] 0
x[7,1,4,0] 0
x[7,1,4,1] 0
x[7,1,4,2] 0
x[7,1,4,3] 0
x[7,1,5,0] 0
x[7,1,5,1] 0
x[7,1,5,2] 0
x[7,1,5,3] 0
x[7,1,6,0] 0
x[7,1,6,1] 0
x[7,1,6,2] 0
x[7,1,6,3] 0
x[7,1,7,0] 0
x[7,1,7,1] 0
x[7,1,7,2] 0
x[7,1,7,3] 0
x[7,1,8,0] 0
x[7,1,8,1] 0
x[7,1,8,2] 0
x[7,1,8,3] 0
x[7,2,0,0] 0
x[7,2,0,1] 0
x[7,2,0,2] 0
x[7,2,0,3] 0
x[7,2,1,0] 0
x[7,2,1,1] 0
x[7,2,1,2] 0
x[7,2,1,3] 0
x[7,2,2,0] 0
x[7,2,2,1] 0
x[7,2,2,2] 0
x[7,2,2,3] 0
x[7,2,3,0] 0
x[7,2,3,1] 0
x[7,2,3,2] 0
x[7,2,3,3] 0
x[7,2,4,0] 0
x[7,2,4,1] 0
x[7,2,4,2] 0
x[7,2,4,3] 0
x[7,2,5,0] 0
x[7,2,5,1] 0
x[7,2,5,2] 0
x[7,2,5,3] 0
x[7,2,6,0] 0
x[7,2,6,1] 0
x[7,2,6,2] 0
x[7,2,6,3] 0
x[7,2,7,0] 1
x[7,2,7,1] 1
x[7,2,7,2] 0
x[7,2,7,3] 0
x[7,2,8,0] 0
x[7,2,8,1] 0
x[7,2,8,2] 1
x[7,2,8,3] 0
x[7,3,0,0] 0
x[7,3,0,1] 0
x[7,3,0,2] 0
x[7,3,0,3] 0
x[7,3,1,0] 0
x[7,3,1,1] 0
x[7,3,1,2] 0
x[7,3,1,3] 0
x[7,3,2,0] 0
x[7,3,2,1] 0
x[7,3,2,2] 0
x[7,3,2,3] 0
x[7,3,3,0] 0
x[7,3,3,1] 0
x[7,3,3,2] 0
x[7,3,3,3] 0
x[7,3,4,0] 0
x[7,3,4,1] 0
x[7,3,4,2] 0
x[7,3,4,3] 0
x[7,3,5,0] 0
x[7,3,5,1] 0
x[7,3,5,2] 0
x[7,3,5,3] 0
x[7,3,6,0] 0
x[7,3,6,1] 0
x[7,3,6,2] 0
x[7,3,6,3] 0
x[7,3,7,0] 1
x[7,3,7,1] 1
x[7,3,7,2] 1
x[7,3,7,3] 0
x[7,3,8,0] 0
x[7,3,8,1] 1
x[7,3,8,2] 1
x[7,3,8,3] 0
x[8,0,0,0] 0
x[8,0,0,1] 0
x[8,0,0,2] 0
x[8,0,0,3] 0
x[8,0,1,0] 0
x[8,0,1,1] 0
x[8,0,1,2] 0
x[8,0,1,3] 0
x[8,0,2,0] 0
x[8,0,2,1] 0
x[8,0,2,2] 0
x[8,0,2,3] 0
x[8,0,3,0] 0
x[8,0,3,1] 0
x[8,0,3,2] 0
x[8,0,3,3] 0
x[8,0,4,0] 0
x[8,0,4,1] 0
x[8,0,4,2] 0
x[8,0,4,3] 0
x[8,0,5,0] 0
x[8,0,5,1] 0
x[8,0,5,2] 0
x[8,0,5,3] 0
x[8,0,6,0] 0
x[8,0,6,1] 0
x[8,0,6,2] 0
x[8,0,6,3] 0
x[8,0,7,0] 0
x[8,0,7,1] 0
x[8,0,7,2] 0
x[8,0,7,3] 0
x[8,0,8,0] 0
x[8,0,8,1] 0
x[8,0,8,2] 0
x[8,0,8,3] 1
x[8,1,0,0] 0
x[8,1,0,1] 0
x[8,1,0,2] 0
x[8,1,0,3] 0
x[8,1,1,0] 0
x[8,1,1,1] 0
x[8,1,1,2] 0
x[8,1,1,3] 0
x[8,1,2,0] 0
x[8,1,2,1] 0
x[8,1,2,2] 0
x[8,1,2,3] 0
x[8,1,3,0] 0
x[8,1,3,1] 0
x[8,1,3,2] 0
x[8,1,3,3] 0
x[8,1,4,0] 0
x[8,1,4,1] 0
x[8,1,4,2] 0
x[8,1,4,3] 0
x[8,1,5,0] 0
x[8,1,5,1] 0
x[8,1,5,2] 0
x[8,1,5,3] 0
x[8,1,6,0] 0
x[8,1,6,1] 0
x[8,1,6,2] 0
x[8,1,6,3] 0
x[8,1,7,0] 0
x[8,1,7,1] 0
x[8,1,7,2] 0
x[8,1,7,3] 0
x[8,1,8,0] 1
x[8,1,8,1] 0
x[8,1,8,2] 0
x[8,1,8,3] 0
x[8,2,0,0] 0
x[8,2,0,1] 0
x[8,2,0,2] 0
x[8,2,0,3] 0
x[8,2,1,0] 0
x[8,2,1,1] 0
x[8,2,1,2] 0
x[8,2,1,3] 0
x[8,2,2,0] 0
x[8,2,2,1] 0
x[8,2,2,2] 0
x[8,2,2,3] 0
x[8,2,3,0] 0
x[8,2,3,1] 0
x[8,2,3,2] 0
x[8,2,3,3] 0
x[8,2,4,0] 0
x[8,2,4,1] 0
x[8,2,4,2] 0
x[8,2,4,3] 0
x[8,2,5,0] 0
x[8,2,5,1] 0
x[8,2,5,2] 0
x[8,2,5,3] 0
x[8,2,6,0] 0
x[8,2,6,1] 0
x[8,2,6,2] 0
x[8,2,6,3] 0
x[8,2,7,0] 0
x[8,2,7,1] 0
x[8,2,7,2] 0
x[8,2,7,3] 0
x[8,2,8,0] 1
x[8,2,8,1] 0
x[8,2,8,2] 0
x[8,2,8,3] 0
x[8,3,0,0] 0
x[8,3,0,1] 0
x[8,3,0,2] 0
x[8,3,0,3] 0
x[8,3,1,0] 0
x[8,3,1,1] 0
x[8,3,1,2] 0
x[8,3,1,3] 0
x[8,3,2,0] 0
x[8,3,2,1] 0
x[8,3,2,2] 0
x[8,3,2,3] 0
x[8,3,3,0] 0
x[8,3,3,1] 0
x[8,3,3,2] 0
x[8,3,3,3] 0
x[8,3,4,0] 0
x[8,3,4,1] 0
x[8,3,4,2] 0
x[8,3,4,3] 0
x[8,3,5,0] 0
x[8,3,5,1] 0
x[8,3,5,2] 0
x[8,3,5,3] 0
x[8,3,6,0] 0
x[8,3,6,1] 0
x[8,3,6,2] 0
x[8,3,6,3] 0
x[8,3,7,0] 0
x[8,3,7,1] 0
x[8,3,7,2] 0
x[8,3,7,3] 0
x[8,3,8,0] 0
x[8,3,8,1] 1
x[8,3,8,2] 0
x[8,3,8,3] 0
s[0,0,3] 0
s[0,0,6] 0
s[0,0,7] 7
s[0,1,0] 4
s[0,1,2] 0
s[0,1,4] 0
s[0,2,2] 0
s[0,2,3] 0
s[0,2,7] 0
s[0,3,2] 0
s[0,3,4] 0
s[0,3,7] 3
s[1,0,1] 0
s[1,0,3] 21
s[1,0,4] 0
s[1,1,0] 13
s[1,1,1] 0
s[1,1,4] 0
s[1,2,4] 0
s[1,2,5] 17
s[1,2,7] 0
s[1,3,0] 0
s[1,3,2] 7
s[1,3,7] 0
s[2,0,1] 0
s[2,0,5] 0
s[2,0,6] 10
s[2,1,3] 0
s[2,1,4] 0
s[2,1,5] 1
s[2,2,1] 4
s[2,2,2] 0
s[2,2,3] 0
s[2,3,4] 2
s[2,3,5] 0
s[2,3,7] 0
s[3,0,3] 0
s[3,0,4] 0
s[3,0,7] 31
s[3,1,4] 0
s[3,1,6] 25
s[3,1,7] 0
s[3,2,0] 0
s[3,2,4] 0
s[3,2,7] 21
s[3,3,0] 0
s[3,3,5] 0
s[3,3,7] 15
s[4,0,5] 0
s[4,0,6] 21
s[4,0,7] 0
s[4,1,0] 0
s[4,1,3] 5
s[4,1,4] 0
s[4,2,1] 14
s[4,2,5] 0
s[4,2,7] 0
s[4,3,0] 19
s[4,3,5] 0
s[4,3,7] 0
s[5,0,1] 42
s[5,0,3] 0
s[5,0,4] 0
s[5,1,1] 0
s[5,1,3] 15
s[5,1,6] 0
s[5,2,0] 0
s[5,2,6] 0
s[5,2,7] 39
s[5,3,3] 35
s[5,3,4] 0
s[5,3,5] 0
s[6,0,1] 0
s[6,0,2] 17
s[6,0,4] 0
s[6,1,0] 0
s[6,1,4] 0
s[6,1,5] 10
s[6,2,4] 13
s[6,2,5] 0
s[6,2,6] 0
s[6,3,3] 0
s[6,3,4] 0
s[6,3,6] 3
s[7,0,0] 0
s[7,0,3] 0
s[7,0,4] 38
s[7,1,2] 27
s[7,1,4] 0
s[7,1,6] 0
s[7,2,1] 0
s[7,2,2] 0
s[7,2,3] 0
s[7,3,1] 0
s[7,3,3] 0
s[7,3,6] 34
s[8,0,0] 0
s[8,0,4] 0
s[8,0,5] 36
s[8,1,0] 0
s[8,1,3] 0
s[8,1,4] 25
s[8,2,1] 30
s[8,2,5] 0
s[8,2,7] 0
s[8,3,0] 33
s[8,3,2] 0
s[8,3,6] 0
Z_FO 143
C1513 0
C1514 0
C1515 0
C1516 0
C1517 1
C1518 0
C1519 0
C1520 0
C1521 1
C1522 0
C1523 0
C1524 1
C1525 0
C1526 1
C1527 0
C1528 1
C1529 0
C1530 0
C1531 0
C1532 1
C1533 0
C1534 0
C1535 0
C1536 1
C1537 0
C1538 0
C1539 1
